N=30;
start=[|
8, 30, 0, 0, 0, 11, 0, 0, 19, 0, 28, 13, 0, 9, 27, 22, 20, 0, 26, 7, 0, 0, 12, 25, 10, 4, 1, 0, 0, 3|
0, 21, 2, 15, 25, 8, 18, 24, 22, 11, 0, 16, 0, 0, 12, 0, 29, 0, 0, 26, 0, 6, 0, 7, 0, 0, 9, 0, 19, 0|
9, 0, 23, 26, 0, 0, 0, 3, 0, 6, 30, 0, 22, 0, 13, 24, 2, 16, 19, 0, 4, 28, 0, 0, 18, 0, 12, 5, 11, 0|
26, 19, 8, 27, 22, 29, 0, 0, 0, 1, 0, 28, 13, 6, 0, 25, 0, 21, 7, 0, 0, 0, 11, 0, 12, 0, 0, 18, 0, 9|
0, 28, 15, 20, 12, 5, 0, 21, 0, 0, 0, 0, 29, 26, 6, 0, 11, 1, 25, 4, 0, 2, 24, 30, 0, 0, 13, 0, 0, 0|
0, 0, 0, 2, 19, 0, 11, 15, 16, 0, 3, 0, 5, 4, 0, 8, 0, 23, 28, 25, 0, 0, 0, 24, 1, 6, 7, 0, 22, 0|
7, 1, 0, 0, 15, 14, 0, 0, 26, 29, 10, 0, 0, 12, 22, 0, 0, 11, 0, 0, 2, 23, 13, 0, 16, 17, 5, 0, 20, 8|
0, 0, 6, 13, 18, 26, 12, 28, 15, 10, 0, 0, 0, 0, 0, 14, 19, 8, 0, 0, 0, 7, 5, 29, 17, 16, 0, 3, 24, 0|
29, 20, 27, 24, 0, 0, 25, 7, 11, 23, 8, 0, 21, 10, 0, 0, 0, 19, 0, 0, 12, 9, 1, 15, 0, 18, 0, 16, 0, 0|
5, 11, 1, 8, 4, 0, 0, 14, 20, 0, 0, 24, 3, 2, 0, 0, 0, 7, 15, 6, 19, 0, 17, 0, 0, 28, 16, 23, 0, 0|
0, 8, 0, 9, 0, 28, 0, 22, 0, 3, 23, 0, 0, 0, 14, 0, 0, 0, 27, 13, 7, 4, 0, 17, 25, 2, 0, 11, 6, 26|
0, 26, 0, 0, 10, 2, 0, 0, 7, 0, 21, 0, 23, 13, 15, 9, 27, 29, 0, 8, 0, 14, 6, 18, 0, 24, 0, 0, 0, 4|
30, 0, 12, 4, 0, 23, 22, 8, 0, 0, 2, 1, 0, 0, 0, 27, 13, 0, 0, 20, 29, 3, 0, 0, 0, 5, 28, 0, 10, 14|
0, 6, 0, 0, 17, 0, 19, 0, 27, 24, 18, 15, 30, 0, 8, 13, 22, 26, 0, 0, 0, 21, 20, 0, 14, 10, 0, 0, 1, 7|
13, 0, 22, 0, 0, 25, 0, 1, 0, 0, 0, 3, 28, 0, 17, 30, 0, 2, 24, 16, 0, 15, 14, 0, 21, 0, 8, 26, 0, 20|
20, 15, 0, 17, 14, 0, 13, 19, 0, 4, 0, 0, 0, 28, 0, 21, 8, 9, 10, 27, 25, 1, 23, 0, 0, 0, 6, 0, 0, 16|
12, 0, 13, 0, 0, 17, 0, 5, 1, 18, 25, 10, 9, 0, 0, 0, 6, 0, 0, 11, 16, 0, 0, 3, 4, 0, 30, 15, 28, 0|
19, 27, 10, 30, 2, 0, 20, 12, 0, 0, 0, 0, 0, 0, 7, 5, 4, 15, 0, 24, 0, 0, 0, 0, 0, 13, 14, 25, 21, 17|
0, 0, 0, 0, 0, 30, 15, 0, 13, 0, 5, 8, 18, 23, 1, 28, 9, 14, 21, 29, 20, 0, 0, 6, 0, 11, 2, 0, 0, 0|
27, 10, 0, 18, 0, 13, 17, 0, 0, 19, 0, 11, 7, 21, 0, 1, 0, 25, 12, 28, 3, 16, 29, 0, 0, 0, 15, 0, 0, 30|
0, 0, 19, 0, 13, 3, 26, 20, 0, 15, 6, 25, 4, 16, 0, 0, 21, 10, 0, 9, 22, 0, 0, 0, 0, 0, 0, 17, 18, 1|
28, 0, 0, 0, 24, 21, 10, 9, 0, 27, 0, 0, 14, 7, 11, 0, 3, 22, 29, 0, 6, 0, 0, 0, 30, 1, 25, 0, 23, 18|
1, 17, 30, 0, 0, 0, 29, 0, 0, 12, 0, 7, 10, 3, 21, 2, 0, 27, 5, 0, 13, 0, 4, 0, 0, 22, 0, 14, 9, 0|
14, 0, 7, 0, 0, 0, 0, 18, 24, 0, 22, 27, 19, 0, 25, 0, 26, 0, 1, 0, 9, 17, 30, 4, 3, 0, 0, 29, 8, 6|
0, 24, 14, 29, 1, 6, 4, 0, 0, 0, 0, 12, 0, 8, 19, 0, 0, 0, 0, 15, 18, 0, 0, 20, 13, 21, 26, 10, 7, 25|
6, 0, 28, 0, 21, 0, 0, 26, 4, 5, 27, 20, 0, 19, 0, 0, 0, 0, 3, 14, 0, 30, 0, 9, 7, 0, 11, 8, 29, 0|
0, 0, 16, 6, 0, 24, 7, 0, 10, 17, 9, 18, 0, 0, 4, 12, 0, 0, 23, 0, 5, 19, 25, 28, 20, 0, 27, 21, 0, 0|
0, 18, 3, 1, 20, 16, 5, 4, 14, 25, 0, 2, 0, 22, 0, 6, 23, 0, 0, 0, 0, 0, 7, 10, 11, 0, 0, 24, 0, 21|
25, 0, 0, 23, 16, 0, 9, 0, 3, 0, 14, 29, 0, 0, 20, 11, 0, 0, 8, 18, 15, 13, 0, 19, 5, 7, 0, 0, 0, 2|
3, 22, 0, 19, 0, 0, 0, 0, 29, 16, 26, 0, 17, 0, 0, 23, 12, 0, 13, 0, 10, 27, 8, 14, 0, 15, 0, 2, 4, 24|];
